11
0 781 266 482 770 1008 400 326 1023 811 223
781 0 515 647 801 377 895 541 953 344 587
266 515 0 382 671 756 478 164 912 570 127
482 647 382 0 295 680 291 218 545 467 498
770 801 671 295 0 683 472 508 252 507 791
1008 377 756 680 683 0 972 696 736 214 864
400 895 478 291 472 972 0 364 709 757 541
326 541 164 218 508 696 364 0 752 491 283
1023 953 912 545 252 736 709 752 0 618 1035
811 344 570 467 507 214 757 491 618 0 688
223 587 127 498 791 864 541 283 1035 688 0
